<number of tasks>
100

<cycle time>
1000

<order strength>
0.598


<task times>
1 582
2 413
3 356
4 353
5 542
6 536
7 365
8 273
9 358
10 455
11 487
12 419
13 433
14 499
15 564
16 440
17 440
18 339
19 466
20 379
21 358
22 622
23 585
24 875
25 301
26 350
27 286
28 563
29 524
30 443
31 550
32 306
33 363
34 544
35 623
36 376
37 632
38 578
39 700
40 541
41 509
42 466
43 391
44 441
45 539
46 442
47 436
48 506
49 329
50 475
51 536
52 609
53 273
54 536
55 347
56 317
57 485
58 592
59 618
60 560
61 782
62 408
63 520
64 625
65 392
66 495
67 480
68 630
69 285
70 661
71 496
72 445
73 506
74 452
75 437
76 496
77 380
78 248
79 701
80 461
81 578
82 386
83 567
84 648
85 657
86 438
87 704
88 524
89 387
90 520
91 543
92 566
93 595
94 635
95 551
96 618
97 259
98 401
99 414
100 609

<precedence relations>
1,28
2,28
3,44
4,44
5,67
6,8
6,9
6,10
6,11
6,13
6,14
7,12
7,13
7,18
8,28
9,67
10,81
11,24
12,24
13,16
13,17
13,19
14,15
14,18
14,20
14,43
15,67
16,81
17,24
18,24
19,21
19,22
19,23
19,25
19,26
19,27
20,27
21,28
22,28
23,28
24,28
24,29
24,30
24,31
24,32
24,33
25,34
25,45
25,46
25,50
25,57
26,28
26,35
27,58
28,36
28,37
28,38
28,39
28,40
28,41
28,42
29,45
29,46
31,64
32,81
33,41
34,56
35,42
35,43
35,47
36,44
37,67
38,45
38,48
38,50
38,57
39,47
40,46
40,49
40,57
40,76
41,44
42,44
42,59
43,46
44,51
44,52
44,53
44,54
44,55
45,67
46,67
47,81
48,81
49,64
49,65
49,77
50,55
50,56
51,57
52,62
54,61
55,67
56,58
56,59
57,67
58,61
58,62
59,60
59,61
60,67
61,63
61,64
61,65
61,66
62,66
62,83
63,67
64,67
66,68
67,69
67,70
67,71
67,72
67,73
67,74
68,75
68,76
68,77
68,96
69,79
70,78
72,80
74,79
75,82
75,84
76,85
78,81
79,81
79,82
79,83
80,84
80,85
81,86
81,87
81,88
81,89
81,90
81,91
81,92
81,93
81,94
81,95
84,99
86,99
86,100
88,99
89,96
90,97
90,98
92,98
92,99
92,100
93,96
93,100
95,97

<end>
